c Generated map
c Size: 9 * 9, weights in range: 1 to 10, walls: True, with ratio 0.1
c dim 6 of 7
c
p sp 81 119
c graph contains 81 nodes and 119 arcs
c
a 1 10 4
a 10 1 4
a 4 13 6
a 13 4 6
a 6 15 3
a 15 6 3
a 6 7 2
a 7 6 2
a 7 16 7
a 16 7 7
a 7 8 5
a 8 7 5
a 8 17 6
a 17 8 6
a 8 9 5
a 9 8 5
a 10 19 4
a 19 10 4
a 10 11 4
a 11 10 4
a 11 20 6
a 20 11 6
a 11 12 10
a 12 11 10
a 12 21 10
a 21 12 10
a 12 13 8
a 13 12 8
a 13 22 10
a 22 13 10
a 13 14 10
a 14 13 10
a 14 23 10
a 23 14 10
a 14 15 6
a 15 14 6
a 15 24 10
a 24 15 10
a 15 16 6
a 16 15 6
a 16 25 2
a 25 16 2
a 16 17 6
a 17 16 6
a 17 26 5
a 26 17 5
a 19 28 5
a 28 19 5
a 19 20 3
a 20 19 3
a 20 29 9
a 29 20 9
a 20 21 7
a 21 20 7
a 21 30 1
a 30 21 1
a 21 22 9
a 22 21 9
a 22 23 9
a 23 22 9
a 23 32 7
a 32 23 7
a 23 24 10
a 24 23 10
a 24 33 9
a 33 24 9
a 24 25 9
a 25 24 9
a 25 34 2
a 34 25 2
a 25 26 1
a 26 25 1
a 26 27 7
a 27 26 7
a 27 36 2
a 36 27 2
a 28 37 5
a 37 28 5
a 28 29 2
a 29 28 2
a 29 38 9
a 38 29 9
a 29 30 3
a 30 29 3
a 30 39 3
a 39 30 3
a 32 41 6
a 41 32 6
a 32 33 9
a 33 32 9
a 33 42 5
a 42 33 5
a 33 34 2
a 34 33 2
a 34 43 1
a 43 34 1
a 36 45 8
a 45 36 8
a 37 46 9
a 46 37 9
a 37 38 7
a 38 37 7
a 38 47 6
a 47 38 6
a 38 39 9
a 39 38 9
a 39 48 9
a 48 39 9
a 39 40 2
a 40 39 2
a 40 49 9
a 49 40 9
a 40 41 9
a 41 40 9
a 41 50 4
a 50 41 4
a 41 42 4
a 42 41 4
a 42 51 6
a 51 42 6
a 42 43 5
a 43 42 5
a 43 52 8
a 52 43 8
a 43 44 3
a 44 43 3
a 44 53 1
a 53 44 1
a 44 45 6
a 45 44 6
a 45 54 3
a 54 45 3
a 46 55 3
a 55 46 3
a 46 47 5
a 47 46 5
a 47 56 7
a 56 47 7
a 47 48 4
a 48 47 4
a 48 57 1
a 57 48 1
a 48 49 6
a 49 48 6
a 49 58 4
a 58 49 4
a 49 50 6
a 50 49 6
a 50 59 3
a 59 50 3
a 50 51 3
a 51 50 3
a 51 60 4
a 60 51 4
a 51 52 5
a 52 51 5
a 52 61 5
a 61 52 5
a 52 53 5
a 53 52 5
a 53 62 2
a 62 53 2
a 53 54 1
a 54 53 1
a 54 63 6
a 63 54 6
a 55 56 2
a 56 55 2
a 56 65 2
a 65 56 2
a 56 57 1
a 57 56 1
a 57 66 1
a 66 57 1
a 57 58 1
a 58 57 1
a 58 67 8
a 67 58 8
a 58 59 8
a 59 58 8
a 59 68 6
a 68 59 6
a 59 60 5
a 60 59 5
a 60 69 7
a 69 60 7
a 60 61 6
a 61 60 6
a 61 70 3
a 70 61 3
a 61 62 1
a 62 61 1
a 62 71 1
a 71 62 1
a 62 63 1
a 63 62 1
a 63 72 6
a 72 63 6
a 65 74 9
a 74 65 9
a 65 66 4
a 66 65 4
a 66 75 4
a 75 66 4
a 66 67 1
a 67 66 1
a 67 76 2
a 76 67 2
a 67 68 7
a 68 67 7
a 68 77 10
a 77 68 10
a 68 69 2
a 69 68 2
a 69 70 6
a 70 69 6
a 70 79 9
a 79 70 9
a 70 71 8
a 71 70 8
a 71 80 4
a 80 71 4
a 71 72 6
a 72 71 6
a 72 81 3
a 81 72 3
a 73 74 10
a 74 73 10
a 74 75 6
a 75 74 6
a 75 76 7
a 76 75 7
a 76 77 1
a 77 76 1
a 79 80 1
a 80 79 1
a 80 81 6
a 81 80 6
